NAME: cuum130.tsp
TYPE: TSP
COMMENT: User-generated TSP file
DIMENSION: 130
EDGE_WEIGHT_TYPE: EUC_2D
NODE_COORD_SECTION
1 52.0 25.0
2 122.0 112.0
3 4.0 102.0
4 92.0 125.0
5 44.0 1.0
6 82.0 5.0
7 81.0 113.0
8 15.0 72.0
9 14.0 126.0
10 38.0 66.0
11 28.0 119.0
12 125.0 91.0
13 107.0 107.0
14 121.0 76.0
15 14.0 92.0
16 116.0 72.0
17 61.0 69.0
18 71.0 114.0
19 30.0 130.0
20 102.0 80.0
21 46.0 130.0
22 125.0 111.0
23 83.0 38.0
24 25.0 46.0
25 7.0 38.0
26 118.0 60.0
27 121.0 105.0
28 118.0 46.0
29 5.0 37.0
30 45.0 103.0
31 117.0 85.0
32 115.0 56.0
33 10.0 73.0
34 75.0 18.0
35 110.0 28.0
36 50.0 43.0
37 60.0 29.0
38 87.0 103.0
39 100.0 92.0
40 35.0 64.0
41 111.0 125.0
42 112.0 95.0
43 55.0 13.0
44 64.0 45.0
45 39.0 5.0
46 42.0 21.0
47 5.0 30.0
48 78.0 46.0
49 17.0 101.0
50 107.0 72.0
51 105.0 111.0
52 69.0 16.0
53 3.0 90.0
54 120.0 53.0
55 119.0 129.0
56 130.0 103.0
57 126.0 112.0
58 68.0 54.0
59 9.0 110.0
60 97.0 18.0
61 59.0 118.0
62 115.0 66.0
63 80.0 12.0
64 10.0 54.0
65 7.0 64.0
66 59.0 95.0
67 76.0 83.0
68 51.0 89.0
69 77.0 109.0
70 78.0 115.0
71 89.0 81.0
72 106.0 59.0
73 29.0 93.0
74 40.0 32.0
75 11.0 23.0
76 93.0 84.0
77 96.0 83.0
78 127.0 97.0
79 27.0 49.0
80 27.0 27.0
81 7.0 69.0
82 96.0 38.0
83 76.0 117.0
84 44.0 30.0
85 86.0 62.0
86 30.0 39.0
87 80.0 73.0
88 91.0 29.0
89 102.0 103.0
90 94.0 81.0
91 127.0 94.0
92 50.0 113.0
93 38.0 99.0
94 82.0 95.0
95 55.0 76.0
96 85.0 101.0
97 61.0 63.0
98 59.0 23.0
99 124.0 35.0
100 76.0 114.0
101 72.0 72.0
102 44.0 58.0
103 66.0 30.0
104 122.0 123.0
105 80.0 88.0
106 109.0 66.0
107 96.0 4.0
108 51.0 92.0
109 45.0 30.0
110 40.0 84.0
111 99.0 94.0
112 95.0 67.0
113 7.0 5.0
114 47.0 106.0
115 63.0 52.0
116 54.0 99.0
117 119.0 6.0
118 114.0 87.0
119 42.0 60.0
120 32.0 114.0
121 43.0 34.0
122 94.0 19.0
123 91.0 17.0
124 19.0 103.0
125 111.0 13.0
126 94.0 126.0
127 44.0 67.0
128 117.0 121.0
129 36.0 36.0
130 101.0 126.0
EOF





